SEEDS
 12224556  98443265
PARTICLE TYPE 1:ELECTRONS 2:PHOTONS 3:POSITRONS 4:BETAS- 5:BETAS+
      5
NUMBER OF MATERIALS IN MATFILE
      4
MATFILE
Water.mat
Air.mat
Bone.mat
Lead.mat
EABS- ELECTRONS  PHOTONS  POSITRONS    C1    C2    WCC    WCR   DSMAX
          1.0D2    1.0D3      1.0D2  0.05  0.05  5.0D3  1.0D3  1.D+35  !-->MATERIAL 1
          1.0D2    1.0D3      1.0D2  0.05  0.05  5.0D3  1.0D3  1.D+35  !-->MATERIAL 2
          1.0D2    1.0D3      1.0D2  0.05  0.05  5.0D3  1.0D3  1.D+35  !-->MATERIAL 3
          1.0D2    1.0D3      1.0D2  0.05  0.05  5.0D3  1.0D3  1.D+35  !-->MATERIAL 4
ENER (KPAR=1,2,3) or EBMAX AF ZF IPROH (KPAR=4 o KPAR=5)
                  0.656E+06   64. 28.    0
NUMBER OF SURFACES
     4
RADII OF THE SURFACES (in cm)
   8.0  8.5  9.0  45.0
MATERIALS FOR BODIES
     1   3   1    2    4
GEOFILE
PET-WBA.geo
RSOURCE (in cm)
 0.0
NTOTAL
 100000
INITIAL ENERGY FILE
ini-ene.his
EHSTI EHSTF NBINE (keV)
  0.0 700    50
ANNIHILATION POSITION FILE
ann-pos.his
XHSTI XHSTF NBINX
  0.0   0.2    40
DETECTION ENERGY FILE
det-ene.his
EINIHSTI EINIHSTF NBINEINI (keV)
  0.0 1.E+3    50
